257
214
230
379
195
310
177
228
264
338
270
344
282
155
534
252
370
154
360
227
260
275
206
292
163
208
180
625
256
396
271
228
427
460
389
264
184
495
193
181
303
356
275
293
196
313
332
315
305
363
386
236
347
170
228
185
292
199
178
325
227
250
350
318
358
256
129
497
595
189
332
263
274
277
194
219
354
188
149
186
215
278
298
374
298
527
254
368
175
232
162
395
270
271
194
236
171
257
299
182
